p cnf 116 373
c t mc
-2 1 0
-2 -1 0
-6 -4 0
-6 -5 0
4 5 6 0
8 -6 0
8 -7 0
6 7 -8 0
3 -8 -9 0
-3 8 -9 0
3 8 9 0
-3 -8 9 0
-10 -11 -12 0
10 11 -12 0
-10 11 12 0
10 -11 12 0
-14 -12 0
-14 -13 0
12 13 14 0
15 -14 0
15 -1 0
14 1 -15 0
-11 17 -18 0
11 -17 -18 0
-11 -17 18 0
11 17 18 0
-16 -18 -19 0
16 18 -19 0
-16 18 19 0
16 -18 19 0
20 -15 0
20 19 0
15 -19 -20 0
21 9 0
21 20 0
-9 -20 -21 0
22 -1 -23 0
-22 1 -23 0
22 1 23 0
-22 -1 23 0
4 -23 -24 0
-4 23 -24 0
4 23 24 0
-4 -23 24 0
25 6 0
25 24 0
-6 -24 -25 0
-21 -25 -26 0
21 25 -26 0
-21 25 26 0
21 -25 26 0
-28 -27 0
-28 20 0
27 -20 28 0
29 -16 0
29 28 0
16 -28 -29 0
-30 -26 0
-30 -29 0
26 29 30 0
-32 31 0
-32 4 0
-31 -4 32 0
32 -5 -33 0
-32 5 -33 0
32 5 33 0
-32 -5 33 0
-35 -12 0
-35 -34 0
12 34 35 0
36 -33 0
36 -35 0
33 35 -36 0
-37 6 0
-37 -11 0
-6 11 37 0
22 -19 -39 0
-22 19 -39 0
22 19 39 0
-22 -19 39 0
-38 39 -40 0
38 -39 -40 0
-38 -39 40 0
38 39 40 0
-41 -37 0
-41 -40 0
37 40 41 0
42 36 0
42 -41 0
-36 41 -42 0
-43 -38 0
-43 -38 0
38 43 0
-45 -15 0
-45 -44 0
15 44 45 0
46 43 0
46 -45 0
-43 45 -46 0
-46 -47 -48 0
46 47 -48 0
-46 47 48 0
46 -47 48 0
49 42 0
49 48 0
-42 -48 -49 0
-50 -30 0
-50 49 0
30 -49 50 0
2 50 -51 0
-2 -50 -51 0
2 -50 51 0
-2 50 51 0
-23 -9 -52 0
23 9 -52 0
-23 9 52 0
23 -9 52 0
-53 -45 0
-53 47 0
45 -47 53 0
52 -53 -54 0
-52 53 -54 0
52 53 54 0
-52 -53 54 0
-56 -55 0
-56 44 0
55 -44 56 0
57 35 0
57 -39 0
-35 39 -57 0
58 56 0
58 57 0
-56 -57 -58 0
59 19 0
59 -32 0
-19 32 -59 0
-58 -59 -60 0
58 59 -60 0
-58 59 60 0
58 -59 60 0
-61 -34 0
-61 1 0
34 -1 61 0
63 61 0
63 62 0
-61 -62 -63 0
-63 -47 -64 0
63 47 -64 0
-63 47 64 0
63 -47 64 0
65 20 0
65 1 0
-20 -1 -65 0
66 -64 0
66 -65 0
64 65 -66 0
-67 60 0
-67 66 0
-60 -66 67 0
54 -67 -68 0
-54 67 -68 0
54 67 68 0
-54 -67 68 0
69 -27 0
69 39 0
27 -39 -69 0
-27 22 -70 0
27 -22 -70 0
-27 -22 70 0
27 22 70 0
-71 70 0
-71 -20 0
-70 20 71 0
72 -71 0
72 37 0
71 -37 -72 0
-73 44 0
-73 17 0
-44 -17 73 0
-72 73 -74 0
72 -73 -74 0
-72 -73 74 0
72 73 74 0
-38 74 -75 0
38 -74 -75 0
-38 -74 75 0
38 74 75 0
-12 -7 -76 0
12 7 -76 0
-12 7 76 0
12 -7 76 0
77 75 0
77 -76 0
-75 76 -77 0
-78 69 0
-78 -77 0
-69 77 78 0
-79 -13 0
-79 3 0
13 -3 79 0
80 79 0
80 23 0
-79 -23 -80 0
-81 -78 0
-81 80 0
78 -80 81 0
-17 -9 -82 0
17 9 -82 0
-17 9 82 0
17 -9 82 0
-83 -82 0
-83 -18 0
82 18 83 0
-84 13 0
-84 -83 0
-13 83 84 0
85 -81 0
85 -84 0
81 84 -85 0
-86 -64 0
-86 -6 0
64 6 86 0
87 -86 0
87 72 0
86 -72 -87 0
-85 87 -88 0
85 -87 -88 0
-85 -87 88 0
85 87 88 0
-89 -68 0
-89 88 0
68 -88 89 0
90 -4 0
90 17 0
4 -17 -90 0
91 -89 0
91 -90 0
89 90 -91 0
46 18 -92 0
-46 -18 -92 0
46 -18 92 0
-46 18 92 0
94 92 0
94 -93 0
-92 93 -94 0
47 -95 -96 0
-47 95 -96 0
47 95 96 0
-47 -95 96 0
97 94 0
97 96 0
-94 -96 -97 0
72 39 -98 0
-72 -39 -98 0
72 -39 98 0
-72 39 98 0
-46 98 -99 0
46 -98 -99 0
-46 -98 99 0
46 98 99 0
-99 45 -100 0
99 -45 -100 0
-99 -45 100 0
99 45 100 0
-101 46 0
-101 27 0
-46 -27 101 0
-102 101 0
-102 18 0
-101 -18 102 0
-103 -73 0
-103 -10 0
73 10 103 0
-27 -61 -104 0
27 61 -104 0
-27 61 104 0
27 -61 104 0
-103 104 -105 0
103 -104 -105 0
-103 -104 105 0
103 104 105 0
106 -7 0
106 4 0
7 -4 -106 0
-107 -105 0
-107 106 0
105 -106 107 0
102 -107 -108 0
-102 107 -108 0
102 107 108 0
-102 -107 108 0
-109 100 0
-109 108 0
-100 -108 109 0
-110 23 0
-110 44 0
-23 -44 110 0
-111 56 0
-111 45 0
-56 -45 111 0
-112 110 0
-112 -111 0
-110 111 112 0
113 -109 0
113 112 0
109 -112 -113 0
114 97 0
114 113 0
-97 -113 -114 0
115 -91 0
115 -114 0
91 114 -115 0
116 -51 0
116 115 0
51 -115 -116 0
92 16 -37 112 -15 -42 -48 98 -116 -10 0
-80 -99 -26 34 0
-72 -50 -58 -69 0
57 -43 89 -29 -104 -30 -81 23 -40 0
70 114 -5 -29 -58 -100 0
-54 65 -15 0
29 -15 59 55 98 -92 -116 -53 0
102 59 106 42 28 18 0
-63 -74 -90 85 67 48 72 -22 47 0
17 -104 21 11 60 31 0
85 1 9 -10 -100 -96 -68 0
39 -11 9 67 -20 13 0
-34 -47 61 -23 0
-110 -35 73 64 0
100 -97 -46 34 -68 35 -98 41 0
48 38 -112 0
-25 -53 70 -8 2 85 0
-52 -97 -71 -58 76 103 53 -95 -115 0
-50 -55 -31 49 -88 106 0
-31 -111 -89 78 72 -58 0
104 52 17 21 54 -62 -41 -43 -33 0
1 92 24 -80 79 103 -71 0
51 -39 -76 73 59 14 0
-68 111 -23 0
90 44 86 0
109 -52 -34 0
8 73 111 -31 64 34 0
96 -95 -44 0
45 -34 66 -59 0
26 -1 -3 -91 42 -113 19 0
-78 7 -27 99 63 0
-100 80 -60 -61 98 0
-11 28 71 58 7 0
2 104 -31 5 73 -18 0
-94 36 10 89 0
-99 -66 -7 0
74 107 29 72 12 75 0
-39 -52 -77 20 -35 -16 -22 -45 78 0
-8 99 31 70 17 -25 43 0
15 17 25 -43 0
80 104 -45 113 -3 15 -64 27 -8 0
39 88 78 44 -103 10 -19 0
35 95 69 42 11 16 55 0
109 -50 116 18 45 9 0
49 85 95 -45 38 115 -116 -80 -61 0
-49 82 -7 -13 -4 50 103 58 88 0
-98 79 -47 1 -105 -61 -114 -45 0
113 -30 105 -71 -1 0
-74 104 14 116 7 -111 -115 0
93 76 -5 -22 -31 -109 -46 20 0
-41 -109 -69 -70 -96 113 103 -24 -48 106 0
5 -84 -64 -70 26 -60 0
-5 48 72 0
-113 -44 15 60 0
58 -36 57 0
-22 21 44 0
-16 39 92 -66 -21 -95 29 107 0
116 0
